80
1283
7
88
68
70
37
44
45
35
0 6
0 9
0 10
0 12
0 16
0 19
0 21
0 22
0 24
0 25
0 29
0 30
0 31
0 32
0 33
0 34
0 35
0 36
0 38
0 40
0 41
0 43
0 44
0 45
0 46
0 49
0 51
0 53
0 54
0 59
0 60
0 68
0 73
0 76
0 77
0 78
1 3
1 6
1 7
1 8
1 9
1 11
1 15
1 16
1 21
1 25
1 29
1 32
1 33
1 35
1 37
1 38
1 47
1 48
1 50
1 55
1 56
1 59
1 60
1 62
1 63
1 65
1 71
1 73
1 74
1 77
1 79
2 3
2 5
2 6
2 8
2 11
2 12
2 13
2 19
2 20
2 21
2 22
2 23
2 24
2 28
2 29
2 30
2 32
2 33
2 34
2 35
2 43
2 46
2 47
2 50
2 53
2 54
2 59
2 60
2 71
2 72
2 74
2 75
3 8
3 9
3 16
3 20
3 21
3 25
3 26
3 34
3 37
3 38
3 41
3 44
3 45
3 46
3 50
3 52
3 58
3 61
3 63
3 64
3 65
3 75
3 76
3 77
3 78
3 79
4 6
4 8
4 14
4 15
4 19
4 21
4 22
4 24
4 27
4 29
4 30
4 33
4 36
4 40
4 43
4 49
4 54
4 55
4 58
4 60
4 66
4 67
4 69
4 73
4 76
4 77
4 78
5 9
5 11
5 15
5 17
5 18
5 21
5 24
5 29
5 35
5 40
5 41
5 44
5 47
5 48
5 51
5 53
5 54
5 57
5 60
5 61
5 63
5 65
5 70
5 71
5 72
5 73
5 74
5 75
5 76
6 8
6 9
6 10
6 11
6 17
6 22
6 23
6 25
6 31
6 32
6 33
6 38
6 39
6 41
6 43
6 45
6 48
6 50
6 51
6 53
6 54
6 55
6 57
6 59
6 63
6 66
6 68
6 70
6 71
6 72
6 76
6 77
7 8
7 10
7 12
7 14
7 16
7 18
7 21
7 23
7 24
7 25
7 28
7 30
7 36
7 41
7 42
7 44
7 45
7 46
7 48
7 49
7 52
7 53
7 55
7 66
7 67
7 69
7 70
7 72
7 73
7 75
7 79
8 10
8 16
8 18
8 20
8 21
8 25
8 28
8 29
8 30
8 33
8 35
8 38
8 39
8 40
8 46
8 60
8 61
8 63
8 68
8 70
8 73
8 74
8 75
8 76
9 12
9 13
9 20
9 21
9 22
9 24
9 28
9 31
9 32
9 34
9 35
9 36
9 39
9 40
9 42
9 43
9 45
9 49
9 51
9 52
9 53
9 54
9 56
9 57
9 60
9 62
9 63
9 65
9 67
9 69
9 71
9 73
10 12
10 14
10 16
10 17
10 18
10 24
10 25
10 35
10 36
10 37
10 44
10 46
10 48
10 49
10 51
10 53
10 54
10 57
10 58
10 59
10 61
10 65
10 68
10 69
10 71
10 72
10 73
10 79
11 15
11 20
11 21
11 22
11 24
11 25
11 26
11 29
11 30
11 34
11 38
11 43
11 47
11 49
11 50
11 60
11 66
11 72
11 73
11 74
11 77
11 78
12 14
12 18
12 21
12 22
12 23
12 26
12 30
12 31
12 34
12 37
12 39
12 45
12 53
12 54
12 55
12 62
12 63
12 64
12 65
12 67
12 68
12 70
12 71
12 72
12 74
12 75
12 76
12 79
13 19
13 20
13 24
13 25
13 29
13 31
13 34
13 36
13 37
13 40
13 41
13 44
13 52
13 55
13 58
13 59
13 60
13 61
13 63
13 65
13 69
13 75
13 77
14 19
14 20
14 21
14 22
14 23
14 24
14 28
14 29
14 30
14 33
14 40
14 42
14 43
14 44
14 47
14 49
14 53
14 54
14 55
14 58
14 59
14 60
14 63
14 66
14 73
14 79
15 18
15 21
15 22
15 24
15 26
15 27
15 31
15 39
15 41
15 43
15 45
15 46
15 51
15 59
15 61
15 62
15 63
15 64
15 65
15 67
15 69
15 70
15 72
15 74
15 75
15 76
15 77
16 17
16 20
16 22
16 23
16 27
16 28
16 30
16 31
16 34
16 36
16 37
16 38
16 41
16 42
16 44
16 45
16 47
16 48
16 49
16 50
16 53
16 55
16 58
16 60
16 61
16 63
16 64
16 69
16 71
16 74
16 76
16 78
17 18
17 20
17 22
17 23
17 28
17 29
17 31
17 34
17 40
17 43
17 44
17 47
17 49
17 50
17 52
17 53
17 56
17 60
17 61
17 62
17 64
17 65
17 67
17 69
17 71
17 72
17 79
18 19
18 21
18 22
18 24
18 28
18 30
18 31
18 32
18 35
18 37
18 40
18 42
18 43
18 44
18 46
18 47
18 48
18 49
18 51
18 55
18 57
18 58
18 64
18 66
18 68
18 69
18 78
19 21
19 22
19 23
19 24
19 25
19 29
19 33
19 34
19 38
19 39
19 46
19 47
19 52
19 54
19 58
19 59
19 61
19 64
19 67
19 69
19 74
19 76
19 77
19 78
20 21
20 30
20 32
20 33
20 34
20 40
20 41
20 42
20 43
20 49
20 50
20 52
20 57
20 60
20 61
20 65
20 68
20 72
20 75
20 79
21 22
21 23
21 26
21 27
21 30
21 32
21 35
21 36
21 39
21 40
21 41
21 43
21 45
21 48
21 51
21 53
21 54
21 55
21 56
21 58
21 63
21 64
21 65
21 68
21 69
21 73
21 79
22 25
22 32
22 33
22 34
22 35
22 36
22 37
22 38
22 43
22 49
22 53
22 57
22 61
22 68
22 69
22 70
22 79
23 25
23 30
23 31
23 32
23 37
23 42
23 43
23 46
23 47
23 48
23 53
23 54
23 62
23 63
23 66
23 67
23 69
23 71
23 74
23 75
23 76
23 78
23 79
24 26
24 31
24 37
24 39
24 43
24 45
24 48
24 52
24 54
24 56
24 58
24 64
24 67
24 68
24 70
24 71
24 72
24 75
24 77
24 78
25 27
25 28
25 29
25 30
25 31
25 32
25 38
25 41
25 44
25 47
25 50
25 56
25 61
25 67
25 68
25 69
25 76
26 32
26 37
26 39
26 41
26 43
26 45
26 63
26 70
26 72
26 75
26 78
26 79
27 28
27 33
27 34
27 35
27 42
27 44
27 45
27 46
27 54
27 55
27 56
27 57
27 59
27 61
27 62
27 63
27 64
27 65
27 67
27 71
27 73
27 76
27 78
27 79
28 29
28 30
28 32
28 33
28 39
28 40
28 41
28 50
28 51
28 54
28 55
28 57
28 58
28 60
28 64
28 65
28 67
28 70
28 74
28 77
28 79
29 34
29 35
29 39
29 42
29 50
29 51
29 52
29 53
29 55
29 56
29 57
29 66
29 68
29 69
29 72
29 74
29 75
29 77
29 79
30 31
30 32
30 35
30 38
30 41
30 44
30 45
30 46
30 48
30 50
30 52
30 53
30 54
30 56
30 60
30 62
30 65
30 67
30 68
30 71
30 73
30 75
30 76
30 77
30 79
31 34
31 38
31 42
31 43
31 44
31 46
31 47
31 48
31 52
31 60
31 65
31 69
31 70
31 72
31 73
31 76
32 36
32 39
32 41
32 42
32 43
32 46
32 47
32 48
32 49
32 54
32 57
32 60
32 63
32 65
32 71
32 72
32 73
32 75
32 79
33 34
33 36
33 37
33 40
33 42
33 43
33 44
33 45
33 46
33 47
33 48
33 50
33 57
33 58
33 60
33 61
33 62
33 63
33 64
33 66
33 68
33 70
33 72
33 75
33 76
33 79
34 35
34 40
34 41
34 42
34 47
34 59
34 60
34 62
34 65
34 67
34 68
34 71
34 72
34 74
34 78
35 38
35 39
35 41
35 43
35 46
35 48
35 49
35 50
35 53
35 55
35 59
35 72
35 73
35 79
36 37
36 39
36 45
36 52
36 54
36 55
36 58
36 60
36 62
36 66
36 67
36 68
36 72
36 75
36 77
36 78
36 79
37 40
37 42
37 44
37 45
37 50
37 52
37 53
37 54
37 55
37 57
37 58
37 59
37 61
37 62
37 65
37 66
37 69
37 71
37 73
37 79
38 44
38 45
38 50
38 51
38 52
38 53
38 56
38 58
38 59
38 60
38 62
38 64
38 66
38 68
38 69
38 70
38 71
38 73
38 74
38 79
39 43
39 46
39 47
39 48
39 49
39 50
39 51
39 52
39 54
39 55
39 62
39 68
39 69
39 72
39 75
39 79
40 42
40 47
40 51
40 52
40 53
40 54
40 55
40 56
40 58
40 60
40 62
40 63
40 64
40 66
40 70
40 74
40 75
40 76
40 77
41 43
41 48
41 50
41 51
41 52
41 56
41 58
41 63
41 67
41 72
41 73
41 76
41 77
42 44
42 48
42 50
42 51
42 54
42 56
42 57
42 60
42 61
42 68
42 74
43 45
43 46
43 50
43 51
43 53
43 57
43 62
43 64
43 65
43 69
43 73
43 76
43 78
44 49
44 51
44 55
44 56
44 57
44 60
44 61
44 66
44 67
44 69
44 71
44 72
44 75
44 76
44 79
45 47
45 49
45 51
45 57
45 59
45 66
45 68
45 71
45 72
45 73
45 75
45 77
45 79
46 48
46 49
46 50
46 52
46 54
46 57
46 59
46 60
46 61
46 63
46 65
46 68
46 74
46 75
46 76
46 77
47 49
47 51
47 52
47 54
47 57
47 64
47 67
47 68
47 70
47 71
47 72
47 73
47 74
47 75
47 78
48 49
48 52
48 53
48 55
48 56
48 57
48 58
48 59
48 61
48 64
48 65
48 67
48 69
48 72
48 73
48 74
48 75
48 76
48 77
49 53
49 57
49 58
49 61
49 62
49 64
49 65
49 68
49 69
49 70
49 71
49 76
50 51
50 54
50 56
50 57
50 60
50 61
50 62
50 66
50 67
50 69
50 70
50 71
50 73
50 75
50 76
50 78
50 79
51 58
51 59
51 63
51 64
51 65
51 69
51 71
51 72
51 73
51 74
51 75
51 76
51 77
51 79
52 53
52 54
52 55
52 56
52 59
52 62
52 64
52 68
52 72
52 78
52 79
53 54
53 62
53 64
53 66
53 69
53 70
53 75
53 76
53 77
53 79
54 55
54 57
54 59
54 61
54 63
54 68
54 71
54 72
54 74
54 78
54 79
55 60
55 62
55 64
55 68
55 69
55 71
55 73
55 74
55 79
56 58
56 59
56 61
56 64
56 66
56 69
56 71
56 73
56 74
56 75
56 77
57 58
57 61
57 63
57 64
57 67
57 68
57 69
57 71
57 72
58 59
58 65
58 66
58 69
58 74
58 76
58 79
59 61
59 66
59 68
59 72
59 74
59 75
60 61
60 70
60 72
60 74
60 78
60 79
61 62
61 67
61 69
61 73
61 74
61 75
61 78
61 79
62 67
62 68
62 71
62 73
62 74
62 79
63 64
63 65
63 68
63 69
63 70
63 71
63 72
63 77
64 65
64 67
64 70
64 74
64 75
64 76
64 77
65 68
65 72
65 74
65 76
65 77
65 78
66 67
66 68
66 71
66 73
66 76
66 77
66 78
66 79
67 71
67 73
67 75
67 77
68 69
68 71
68 72
68 73
68 74
68 75
68 78
69 70
69 78
70 72
70 74
70 78
71 73
71 75
71 76
71 77
71 78
72 79
73 74
73 75
73 77
74 75
74 77
74 79
75 76
76 78
77 78
61 13 36 26 66 32 64 44 43 41 75 20
16 21 14 68 27 51 35 58 0 47 57 62
17 54 34 67 74 30 48 5 69 53 23 31
19 56 29 12 25 7 33 77 22 73 6 70
52 24 37 2 9 46 38 15 10 1 79 11
55 71 76 60 4 40 78 65 49 18 8 39
63 3 59 50 45 42 28 72
